; benchmark generated from python API
(set-info :status unknown)
(declare-datatypes ((IntState 0)) (((Mk1 (val1 Int)) (Mk2 (val2 Int)))))
 (declare-fun |c_hanoi_#in~n| () Int)
(declare-fun |c_hanoi_#res| () Int)
(declare-fun c_hanoi_~n () Int)
(assert
 (let (($x172 (exists ((|v_hanoi_#t~ret0_10_st| IntState) (val!29 Int) )(exists ((v_nnf_18_st IntState) (val!30 Int) )(exists ((v_nnf_17_st IntState) (val!31 Int) )(let (($x85 (<= |c_hanoi_#in~n| 4)))
 (let (($x135 (and (<= (+ (* 2 (val2 |v_hanoi_#t~ret0_10_st|)) 1) |c_hanoi_#res|) $x85 (<= 1 (val2 v_nnf_17_st)) (<= (+ (* 2 (val2 v_nnf_17_st)) 1) (val2 v_nnf_18_st)) (<= (+ (* 2 (val2 v_nnf_18_st)) 1) (val2 |v_hanoi_#t~ret0_10_st|)))))
 (let (($x52 (not (= v_nnf_17_st (Mk1 val!31)))))
 (let (($x162 (not (= v_nnf_18_st (Mk1 val!30)))))
 (let (($x156 (not (= |v_hanoi_#t~ret0_10_st| (Mk1 val!29)))))
 (and $x156 $x162 $x52 $x135)))))))
 )
 )
 ))
 (let (($x26 (exists ((|v_hanoi_#t~ret0_10| Int) )(exists ((v_nnf_18 Int) )(exists ((v_nnf_17 Int) )(let (($x85 (<= |c_hanoi_#in~n| 4)))
 (and (<= (+ (* 2 |v_hanoi_#t~ret0_10|) 1) |c_hanoi_#res|) $x85 (<= 1 v_nnf_17) (<= (+ (* 2 v_nnf_17) 1) v_nnf_18) (<= (+ (* 2 v_nnf_18) 1) |v_hanoi_#t~ret0_10|))))
 )
 )
 ))
 (let (($x46 (<= |c_hanoi_#in~n| c_hanoi_~n)))
 (and (and $x46 $x26) (not $x172))))))
(check-sat)
